
  32    4
  10   10   10   10

   0   0   0   0   0   8 2 13 17 18 28 29 30 31 
   6  10  10  10  10   2 27 3 
   7  10  10  10  10   2 25 4 
   7  10  10  10  10   1 5 
  10  10  10  10  10   2 24 6 
   9  10  10  10  10   2 23 7 
   9  10  10  10  10   1 8 
   9  10  10  10  10   1 9 
   4  10  10  10  10   1 10 
   9  10  10  10  10   2 22 11 
   6  10  10  10  10   1 12 
   8  10  10  10  10   3 21 20 14 
   3  10  10  10  10   3 21 20 15 
   4  10  10  10  10   1 15 
   2  10  10  10  10   1 16 
   9  10  10  10  10   1 19 
   6  10  10  10  10   1 26 
   5  10  10  10  10   1 23 
   6  10  10  10  10   1 32
   1  10  10  10  10   1 32
   2  10  10  10  10   1 32
   9  10  10  10  10   1 32
   9  10  10  10  10   1 32
   7  10  10  10  10   1 32
  10  10  10  10  10   1 32
   4  10  10  10  10   1 32
   9  10  10  10  10   1 32
   3  10  10  10  10   1 32
   2  10  10  10  10   1 32
   7  10  10  10  10   1 32
   4  10  10  10  10   1 32
   0   0   0   0   0   0 
